33825 40670 
33240 40988 
32646 41294 
35168 39763 
32956 41192 
32077 41552 
32477 41427 
32270 41505 
31661 41620 
31912 41594 
31321 41749 
31721 41599 
32864 41199 
33565 40863 
32761 41223 
33335 40909 
33901 40640 
34036 40573 
33047 41139 
33475 40896 
32789 41209 
31627 41648 
31985 41559 
33383 40903 
32385 41434 
33948 40631 
34420 40344 
34938 39928 
